1, 18, 2, 3, 7, 8, 13, 10, 11, 12, 9, 5, 6, 4, 16, 1
1, 17, 32, 24, 37, 47, 46, 45, 44, 25, 26, 1
1, 14, 15, 52, 53, 22, 30, 21, 27, 28, 29, 23, 31, 36, 33, 20, 19, 1
1, 34, 35, 39, 42, 43, 51, 50, 48, 49, 41, 40, 38, 1
